p cnf 172 414
a 1 2 3 4 5 6 7 8 9 10 11 12 13 14 15 16 17 18 19 20 21 22 23 24 25 26 27 28 29 30 31 32 0
e 33 34 35 36 37 38 39 40 41 42 43 44 45 46 47 48 49 50 51 52 53 54 55 56 57 58 59 60 61 62 63 64 65 66 67 68 69 70 71 72 73 74 75 76 77 78 79 80 81 82 83 84 85 86 87 88 89 90 91 92 93 94 95 96 97 98 99 100 101 102 103 104 105 106 107 108 109 110 111 112 113 114 115 116 117 118 119 120 121 122 123 124 125 126 127 128 129 130 131 132 133 134 135 136 137 138 139 140 141 142 143 144 145 146 147 148 149 150 151 152 153 154 155 156 157 158 159 160 161 162 163 164 165 166 167 168 169 170 171 0
-1 -62 0
14 -62 0
1 62 -14 0
-13 -63 0
62 -63 0
13 63 -62 0
64 -13 0
64 -63 0
13 63 -64 0
-12 -64 -65 0
12 64 -65 0
64 65 -12 0
12 65 -64 0
-2 -66 0
12 -66 0
2 66 -12 0
-16 -67 0
66 -67 0
16 67 -66 0
68 -16 0
68 -67 0
16 67 -68 0
-15 -68 -69 0
15 68 -69 0
68 69 -15 0
15 69 -68 0
-3 -70 0
15 -70 0
3 70 -15 0
-18 -71 0
70 -71 0
18 71 -70 0
72 -18 0
72 -71 0
18 71 -72 0
-17 -72 -73 0
17 72 -73 0
72 73 -17 0
17 73 -72 0
-4 -74 0
17 -74 0
4 74 -17 0
-20 -75 0
74 -75 0
20 75 -74 0
76 -20 0
76 -75 0
20 75 -76 0
-19 -76 -77 0
19 76 -77 0
76 77 -19 0
19 77 -76 0
-5 -78 0
19 -78 0
5 78 -19 0
-22 -79 0
78 -79 0
22 79 -78 0
80 -22 0
80 -79 0
22 79 -80 0
-21 -80 -81 0
21 80 -81 0
80 81 -21 0
21 81 -80 0
-6 -82 0
21 -82 0
6 82 -21 0
-24 -83 0
82 -83 0
24 83 -82 0
84 -24 0
84 -83 0
24 83 -84 0
-23 -84 -85 0
23 84 -85 0
84 85 -23 0
23 85 -84 0
-7 -86 0
23 -86 0
7 86 -23 0
-26 -87 0
86 -87 0
26 87 -86 0
88 -26 0
88 -87 0
26 87 -88 0
-25 -88 -89 0
25 88 -89 0
88 89 -25 0
25 89 -88 0
-8 -90 0
25 -90 0
8 90 -25 0
-28 -91 0
90 -91 0
28 91 -90 0
92 -28 0
92 -91 0
28 91 -92 0
-27 -92 -93 0
27 92 -93 0
92 93 -27 0
27 93 -92 0
-9 -94 0
27 -94 0
9 94 -27 0
-30 -95 0
94 -95 0
30 95 -94 0
96 -30 0
96 -95 0
30 95 -96 0
-29 -96 -97 0
29 96 -97 0
96 97 -29 0
29 97 -96 0
-10 -98 0
29 -98 0
10 98 -29 0
-32 -99 0
98 -99 0
32 99 -98 0
100 -32 0
100 -99 0
32 99 -100 0
-31 -100 -101 0
31 100 -101 0
100 101 -31 0
31 101 -100 0
-1 -102 0
-2 -102 0
-3 -102 0
-4 -102 0
-5 -102 0
-6 -102 0
-7 -102 0
-8 -102 0
-9 -102 0
-10 -102 0
-11 -102 0
-65 -102 0
-69 -102 0
-73 -102 0
-77 -102 0
-81 -102 0
-85 -102 0
-89 -102 0
-93 -102 0
-97 -102 0
-101 -102 0
1 2 3 4 5 6 7 8 9 10 11 65 69 73 77 81 85 89 93 97 101 102 0
-33 -103 0
45 -103 0
33 103 -45 0
-44 -104 0
103 -104 0
44 104 -103 0
105 -44 0
105 -104 0
44 104 -105 0
-43 -105 -106 0
43 105 -106 0
105 106 -43 0
43 106 -105 0
-34 -107 0
43 -107 0
34 107 -43 0
-47 -108 0
107 -108 0
47 108 -107 0
109 -47 0
109 -108 0
47 108 -109 0
-46 -109 -110 0
46 109 -110 0
109 110 -46 0
46 110 -109 0
-35 -111 0
46 -111 0
35 111 -46 0
-49 -112 0
111 -112 0
49 112 -111 0
113 -49 0
113 -112 0
49 112 -113 0
-48 -113 -114 0
48 113 -114 0
113 114 -48 0
48 114 -113 0
-36 -115 0
48 -115 0
36 115 -48 0
-51 -116 0
115 -116 0
51 116 -115 0
117 -51 0
117 -116 0
51 116 -117 0
-50 -117 -118 0
50 117 -118 0
117 118 -50 0
50 118 -117 0
-37 -119 0
50 -119 0
37 119 -50 0
-53 -120 0
119 -120 0
53 120 -119 0
121 -53 0
121 -120 0
53 120 -121 0
-52 -121 -122 0
52 121 -122 0
121 122 -52 0
52 122 -121 0
-38 -123 0
52 -123 0
38 123 -52 0
-55 -124 0
123 -124 0
55 124 -123 0
125 -55 0
125 -124 0
55 124 -125 0
-54 -125 -126 0
54 125 -126 0
125 126 -54 0
54 126 -125 0
-39 -127 0
54 -127 0
39 127 -54 0
-57 -128 0
127 -128 0
57 128 -127 0
129 -57 0
129 -128 0
57 128 -129 0
-56 -129 -130 0
56 129 -130 0
129 130 -56 0
56 130 -129 0
-40 -131 0
56 -131 0
40 131 -56 0
-59 -132 0
131 -132 0
59 132 -131 0
133 -59 0
133 -132 0
59 132 -133 0
-58 -133 -134 0
58 133 -134 0
133 134 -58 0
58 134 -133 0
-41 -135 0
58 -135 0
41 135 -58 0
-61 -136 0
135 -136 0
61 136 -135 0
137 -61 0
137 -136 0
61 136 -137 0
-60 -137 -138 0
60 137 -138 0
137 138 -60 0
60 138 -137 0
-33 -139 0
-34 -139 0
-35 -139 0
-36 -139 0
-37 -139 0
-38 -139 0
-39 -139 0
-40 -139 0
-41 -139 0
-42 -139 0
-106 -139 0
-110 -139 0
-114 -139 0
-118 -139 0
-122 -139 0
-126 -139 0
-130 -139 0
-134 -139 0
-138 -139 0
33 34 35 36 37 38 39 40 41 42 106 110 114 118 122 126 130 134 138 139 0
-11 -33 -140 0
11 33 -140 0
33 140 -11 0
11 140 -33 0
-31 -45 -141 0
31 45 -141 0
45 141 -31 0
31 141 -45 0
-140 -142 0
-141 -142 0
140 141 142 0
-11 -34 -143 0
11 34 -143 0
34 143 -11 0
11 143 -34 0
-31 -43 -144 0
31 43 -144 0
43 144 -31 0
31 144 -43 0
-143 -145 0
-144 -145 0
143 144 145 0
-11 -35 -146 0
11 35 -146 0
35 146 -11 0
11 146 -35 0
-31 -46 -147 0
31 46 -147 0
46 147 -31 0
31 147 -46 0
-146 -148 0
-147 -148 0
146 147 148 0
-11 -36 -149 0
11 36 -149 0
36 149 -11 0
11 149 -36 0
-31 -48 -150 0
31 48 -150 0
48 150 -31 0
31 150 -48 0
-149 -151 0
-150 -151 0
149 150 151 0
-11 -37 -152 0
11 37 -152 0
37 152 -11 0
11 152 -37 0
-31 -50 -153 0
31 50 -153 0
50 153 -31 0
31 153 -50 0
-152 -154 0
-153 -154 0
152 153 154 0
-11 -38 -155 0
11 38 -155 0
38 155 -11 0
11 155 -38 0
-31 -52 -156 0
31 52 -156 0
52 156 -31 0
31 156 -52 0
-155 -157 0
-156 -157 0
155 156 157 0
-11 -39 -158 0
11 39 -158 0
39 158 -11 0
11 158 -39 0
-31 -54 -159 0
31 54 -159 0
54 159 -31 0
31 159 -54 0
-158 -160 0
-159 -160 0
158 159 160 0
-11 -40 -161 0
11 40 -161 0
40 161 -11 0
11 161 -40 0
-31 -56 -162 0
31 56 -162 0
56 162 -31 0
31 162 -56 0
-161 -163 0
-162 -163 0
161 162 163 0
-11 -41 -164 0
11 41 -164 0
41 164 -11 0
11 164 -41 0
-31 -58 -165 0
31 58 -165 0
58 165 -31 0
31 165 -58 0
-164 -166 0
-165 -166 0
164 165 166 0
-11 -42 -167 0
11 42 -167 0
42 167 -11 0
11 167 -42 0
-31 -60 -168 0
31 60 -168 0
60 168 -31 0
31 168 -60 0
-167 -169 0
-168 -169 0
167 168 169 0
170 -142 0
170 -145 0
170 -148 0
170 -151 0
170 -154 0
170 -157 0
170 -160 0
170 -163 0
170 -166 0
170 -169 0
142 145 148 151 154 157 160 163 166 169 -170 0
139 -171 0
170 -171 0
171 -139 -170 0
171 -102 0
